Solving original (integer) problem with strategy gdp.hull_exact...
--- Job model.gms Start 02/14/26 19:08:27 52.2.0 d8e408be LEX-LEG x86 64bit/Linux
--- Applying:
    /package/gams/52.2/gmsprmun.txt
--- GAMS Parameters defined
    Input /local/scratch/a/sgusev/repos/k_means/data/gams_gurobi_gdp.hull_exact/no_mode/2026-02-14_19-08-26/original/model.gms
    Output /local/scratch/a/sgusev/repos/k_means/data/gams_gurobi_gdp.hull_exact/no_mode/2026-02-14_19-08-26/original/output.lst
    ScrDir /local/scratch/a/sgusev/repos/k_means/data/gams_gurobi_gdp.hull_exact/no_mode/2026-02-14_19-08-26/original/225a/
    SysDir /package/gams/52.2/
    CurDir /local/scratch/a/sgusev/repos/k_means/data/gams_gurobi_gdp.hull_exact/no_mode/2026-02-14_19-08-26/original/
    LogOption 3
    AppendLog 1
Licensee: David Bernal / SECQUOIA Research Group         G251008+0003Ac-GEN
          Purdue University, Davidson School of Chemical EngineeringDCE4838
          225a/gamslice.dat
          5a82958a-fbca-4a23
          node:66820903 mem:995 cores:48 ipport:41363 v:2                  
          Evaluation license: Not for commercial or production use
          The time-limited license stops working on : Jun 30, 2027
System information: 48 physical cores and 995 Gb physical memory detected
GAMS 52.2.0   Copyright (C) 1987-2025 GAMS Development. All rights reserved
--- Starting compilation
--- model.gms(2456) 2 Mb
--- $echo File /local/scratch/a/sgusev/repos/k_means/data/gams_gurobi_gdp.hull_exact/no_mode/2026-02-14_19-08-26/original/gurobi.opt
--- model.gms(3627) 2 Mb
--- Starting execution: elapsed 0:00:00.015
--- model.gms(2465) 3 Mb
--- Generating MINLP model GAMS_MODEL
--- model.gms(2469) 5 Mb
---   745 rows  360 columns  1,797 non-zeroes
---   1,176 nl-code  210 nl-non-zeroes
---   42 discrete-columns
--- Range statistics (absolute non-zero finite values)
--- RHS       [min, max] : [ 1.000E+00, 1.000E+00] - Zero values observed as well
--- Bound     [min, max] : [ 1.000E+00, 8.400E+01] - Zero values observed as well
--- Matrix    [min, max] : [ 1.000E+00, 8.400E+01] - Zero values observed as well
--- model.gms(2469) 3 Mb
--- Executing GUROBI (Solvelink=5): elapsed 0:00:00.020
Reading parameter(s) from "/local/scratch/a/sgusev/repos/k_means/data/gams_gurobi_gdp.hull_exact/no_mode/2026-02-14_19-08-26/original/gurobi.opt"
>>  NonConvex 2
>>  Threads 1
>>  MIPGap 1e-06
>>  MIPGapAbs 1e-10
>>  FeasibilityTol 1e-06
>>  OptimalityTol 1e-06
>>  IntFeasTol 1e-05
Finished reading from "/local/scratch/a/sgusev/repos/k_means/data/gams_gurobi_gdp.hull_exact/no_mode/2026-02-14_19-08-26/original/gurobi.opt"

... GRB_LICENSE_FILE = /local/scratch/a/sgusev/gurobi.lic

    Gurobi           52.2.0 d8e408be Dec 8, 2025           LEG x86 64bit/Linux    

... GAMS/Gurobi Link license.
... GMO Q Extraction (ThreePass): 0.00s

    Gurobi Optimizer version 13.0.0 build v13.0.0rc1 (linux64 - "Oracle Linux Server 9.7")
    
    CPU model: AMD EPYC 7643 48-Core Processor, instruction set [SSE2|AVX|AVX2]
    Thread count: 48 physical cores, 96 logical processors, using up to 1 threads
    
    Non-default parameters:
    TimeLimit  300
    MIPGap  1e-06
    LogToConsole  0
    NonConvex  2
    Threads  1
    
    Optimize a model with 702 rows, 359 columns and 1572 nonzeros (Min)
    Model fingerprint: 0x5bcd3d49
    Model has 14 linear objective coefficients
    Model has 42 quadratic constraints
    Variable types: 317 continuous, 42 integer (0 binary)
    Coefficient statistics:
      Matrix range     [1e+00, 8e+01]
      QMatrix range    [4e-02, 3e+00]
      Objective range  [1e+00, 1e+00]
      Bounds range     [1e+00, 8e+01]
      RHS range        [1e+00, 1e+00]
    Presolve removed 126 rows and 140 columns
    Presolve time: 0.00s
    Presolved: 891 rows, 513 columns, 2377 nonzeros
    Presolved model has 126 quadratic constraint(s)
    Variable types: 471 continuous, 42 integer (42 binary)
    
    Root relaxation: objective 0.000000e+00, 241 iterations, 0.00 seconds (0.00 work units)
    
        Nodes    |    Current Node    |     Objective Bounds      |     Work
     Expl Unexpl |  Obj  Depth IntInf | Incumbent    BestBd   Gap | It/Node Time
    
    H    0     0                       6.3728758    0.00000   100%     -    0s
    *    0     0               0       6.3728758    0.00000   100%     -    0s
         0     0    0.00000    0   18    6.37288    0.00000   100%     -    0s
         0     0    0.00000    0   26    6.37288    0.00000   100%     -    0s
         0     0    0.00000    0   26    6.37288    0.00000   100%     -    0s
         0     0    0.00000    0   24    6.37288    0.00000   100%     -    0s
         0     0    0.00000    0   10    6.37288    0.00000   100%     -    0s
         0     0    0.00000    0   10    6.37288    0.00000   100%     -    0s
         0     0    0.00000    0   22    6.37288    0.00000   100%     -    0s
         0     0    0.00000    0   18    6.37288    0.00000   100%     -    0s
         0     0    0.00000    0   24    6.37288    0.00000   100%     -    0s
         0     0    0.00000    0   16    6.37288    0.00000   100%     -    0s
         0     0    0.00000    0   22    6.37288    0.00000   100%     -    0s
         0     0    0.00000    0   22    6.37288    0.00000   100%     -    0s
         0     0    0.00000    0   22    6.37288    0.00000   100%     -    0s
         0     0    0.00000    0   20    6.37288    0.00000   100%     -    0s
         0     0    0.00000    0   20    6.37288    0.00000   100%     -    0s
         0     0    0.00000    0   20    6.37288    0.00000   100%     -    0s
         0     0    0.00000    0   22    6.37288    0.00000   100%     -    0s
         0     0    0.00000    0   20    6.37288    0.00000   100%     -    0s
         0     0    0.00000    0   24    6.37288    0.00000   100%     -    0s
         0     0    0.00000    0   24    6.37288    0.00000   100%     -    0s
         0     0    0.00000    0   25    6.37288    0.00000   100%     -    0s
         0     0    0.00000    0   23    6.37288    0.00000   100%     -    0s
         0     0    0.00000    0   22    6.37288    0.00000   100%     -    0s
         0     0    0.00000    0   22    6.37288    0.00000   100%     -    0s
         0     0    0.00000    0   24    6.37288    0.00000   100%     -    0s
         0     0    0.00000    0   24    6.37288    0.00000   100%     -    0s
         0     0    0.00000    0   26    6.37288    0.00000   100%     -    0s
         0     0    0.00000    0   22    6.37288    0.00000   100%     -    0s
         0     0    0.00000    0   22    6.37288    0.00000   100%     -    0s
         0     0    0.00000    0   22    6.37288    0.00000   100%     -    0s
         0     0    0.00000    0   22    6.37288    0.00000   100%     -    0s
         0     0    0.00000    0   22    6.37288    0.00000   100%     -    0s
         0     0    0.00000    0   22    6.37288    0.00000   100%     -    0s
         0     0    0.00000    0   22    6.37288    0.00000   100%     -    0s
         0     0    0.00000    0   20    6.37288    0.00000   100%     -    0s
         0     0    0.00000    0   20    6.37288    0.00000   100%     -    0s
         0     0    0.00000    0   20    6.37288    0.00000   100%     -    0s
         0     0    0.00000    0   19    6.37288    0.00000   100%     -    0s
         0     0    0.00000    0   25    6.37288    0.00000   100%     -    0s
         0     0    0.00000    0   20    6.37288    0.00000   100%     -    0s
         0     0    0.00000    0   25    6.37288    0.00000   100%     -    0s
         0     0    0.00000    0   24    6.37288    0.00000   100%     -    0s
         0     0    0.00000    0   24    6.37288    0.00000   100%     -    0s
         0     0    0.00000    0   24    6.37288    0.00000   100%     -    0s
         0     0    0.00000    0   22    6.37288    0.00000   100%     -    0s
         0     0    0.00000    0   12    6.37288    0.00000   100%     -    0s
         0     0    0.00000    0   24    6.37288    0.00000   100%     -    0s
         0     0    0.00000    0   24    6.37288    0.00000   100%     -    0s
         0     0    0.00000    0   24    6.37288    0.00000   100%     -    0s
         0     0    0.00000    0   24    6.37288    0.00000   100%     -    0s
         0     0    0.00000    0   24    6.37288    0.00000   100%     -    0s
         0     0    0.00000    0   18    6.37288    0.00000   100%     -    0s
         0     0    0.00000    0   26    6.37288    0.00000   100%     -    0s
         0     0    0.00000    0   25    6.37288    0.00000   100%     -    0s
         0     0    0.00000    0   23    6.37288    0.00000   100%     -    0s
         0     0    0.00000    0   18    6.37288    0.00000   100%     -    0s
         0     0    0.00000    0   19    6.37288    0.00000   100%     -    0s
         0     0    0.00000    0   14    6.37288    0.00000   100%     -    0s
         0     0    0.00000    0   26    6.37288    0.00000   100%     -    0s
         0     0    0.00000    0   26    6.37288    0.00000   100%     -    0s
         0     0    0.00000    0   24    6.37288    0.00000   100%     -    0s
         0     0    0.00000    0   22    6.37288    0.00000   100%     -    0s
         0     0    0.00000    0   24    6.37288    0.00000   100%     -    0s
         0     0    0.00000    0   20    6.37288    0.00000   100%     -    0s
         0     0    0.00000    0   24    6.37288    0.00000   100%     -    0s
         0     0    0.00000    0   22    6.37288    0.00000   100%     -    0s
         0     0    0.00000    0   24    6.37288    0.00000   100%     -    0s
         0     0    0.00000    0   20    6.37288    0.00000   100%     -    0s
         0     0    0.00000    0   22    6.37288    0.00000   100%     -    0s
         0     0    0.00000    0   20    6.37288    0.00000   100%     -    0s
         0     0    0.00000    0   27    6.37288    0.00000   100%     -    0s
         0     0    0.00000    0   16    6.37288    0.00000   100%     -    0s
         0     0    0.00000    0   18    6.37288    0.00000   100%     -    0s
         0     0    0.00000    0   18    6.37288    0.00000   100%     -    0s
         0     0    0.00000    0   24    6.37288    0.00000   100%     -    0s
         0     0    0.00000    0   24    6.37288    0.00000   100%     -    0s
         0     0    0.00000    0   22    6.37288    0.00000   100%     -    0s
         0     0    0.00000    0   22    6.37288    0.00000   100%     -    0s
         0     0    0.00000    0   20    6.37288    0.00000   100%     -    0s
         0     0    0.00000    0   20    6.37288    0.00000   100%     -    0s
         0     0    0.00000    0   18    6.37288    0.00000   100%     -    0s
         0     0    0.00000    0   18    6.37288    0.00000   100%     -    0s
         0     0    0.00000    0   22    6.37288    0.00000   100%     -    0s
         0     0    0.00000    0   22    6.37288    0.00000   100%     -    0s
         0     0    0.00000    0   24    6.37288    0.00000   100%     -    0s
         0     0    0.00000    0   16    6.37288    0.00000   100%     -    0s
         0     0    0.00000    0   17    6.37288    0.00000   100%     -    0s
         0     0    0.00000    0    9    6.37288    0.00000   100%     -    0s
         0     0    0.00000    0   22    6.37288    0.00000   100%     -    0s
         0     0    0.00000    0   22    6.37288    0.00000   100%     -    0s
         0     0    0.00000    0   22    6.37288    0.00000   100%     -    0s
         0     0    0.00000    0   22    6.37288    0.00000   100%     -    0s
         0     0    0.00000    0   14    6.37288    0.00000   100%     -    0s
         0     0    0.00000    0   14    6.37288    0.00000   100%     -    0s
         0     0    0.00000    0   20    6.37288    0.00000   100%     -    0s
         0     0    0.00000    0   14    6.37288    0.00000   100%     -    0s
         0     0    0.00000    0   26    6.37288    0.00000   100%     -    0s
         0     0    0.00000    0   22    6.37288    0.00000   100%     -    0s
         0     0    0.00000    0   24    6.37288    0.00000   100%     -    0s
         0     0    0.00000    0   24    6.37288    0.00000   100%     -    0s
         0     0    0.00000    0   24    6.37288    0.00000   100%     -    0s
         0     0    0.00000    0   19    6.37288    0.00000   100%     -    0s
         0     0    0.00000    0   26    6.37288    0.00000   100%     -    0s
         0     0    0.00000    0   25    6.37288    0.00000   100%     -    0s
         0     0    0.00000    0   28    6.37288    0.00000   100%     -    0s
         0     0    0.00000    0   26    6.37288    0.00000   100%     -    0s
         0     0    0.00000    0   26    6.37288    0.00000   100%     -    0s
         0     0    0.00000    0   23    6.37288    0.00000   100%     -    0s
         0     0    0.00000    0   23    6.37288    0.00000   100%     -    0s
         0     0    0.00000    0   21    6.37288    0.00000   100%     -    0s
         0     0    0.00000    0   21    6.37288    0.00000   100%     -    0s
         0     0    0.00000    0   21    6.37288    0.00000   100%     -    0s
         0     0    0.00000    0   23    6.37288    0.00000   100%     -    0s
         0     0    0.00000    0   23    6.37288    0.00000   100%     -    0s
         0     0    0.00000    0   23    6.37288    0.00000   100%     -    0s
         0     0    0.00000    0   23    6.37288    0.00000   100%     -    0s
         0     0    0.00000    0   25    6.37288    0.00000   100%     -    0s
         0     0    0.00000    0   24    6.37288    0.00000   100%     -    0s
         0     0    0.00000    0   28    6.37288    0.00000   100%     -    0s
         0     0    0.00000    0   24    6.37288    0.00000   100%     -    0s
         0     0    0.00000    0   26    6.37288    0.00000   100%     -    0s
         0     0    0.00000    0   26    6.37288    0.00000   100%     -    0s
         0     0    0.00000    0   27    6.37288    0.00000   100%     -    0s
         0     0    0.00000    0   20    6.37288    0.00000   100%     -    0s
         0     0    0.00000    0   20    6.37288    0.00000   100%     -    0s
         0     0    0.00000    0   20    6.37288    0.00000   100%     -    0s
         0     0    0.00000    0   22    6.37288    0.00000   100%     -    0s
         0     0    0.00000    0   22    6.37288    0.00000   100%     -    0s
         0     0    0.00000    0   26    6.37288    0.00000   100%     -    0s
         0     0    0.00000    0   24    6.37288    0.00000   100%     -    0s
         0     0    0.00000    0   26    6.37288    0.00000   100%     -    0s
         0     0    0.00000    0   25    6.37288    0.00000   100%     -    0s
         0     0    0.00000    0   22    6.37288    0.00000   100%     -    0s
         0     0    0.00000    0   20    6.37288    0.00000   100%     -    0s
         0     0    0.00000    0   20    6.37288    0.00000   100%     -    0s
         0     0    0.00000    0   20    6.37288    0.00000   100%     -    0s
         0     0    0.00000    0   20    6.37288    0.00000   100%     -    0s
         0     0    0.00000    0   20    6.37288    0.00000   100%     -    0s
         0     0    0.00000    0   20    6.37288    0.00000   100%     -    0s
         0     0    0.00000    0   10    6.37288    0.00000   100%     -    0s
         0     0    0.00000    0   20    6.37288    0.00000   100%     -    0s
         0     0    0.00000    0   20    6.37288    0.00000   100%     -    0s
         0     0    0.00000    0   24    6.37288    0.00000   100%     -    0s
         0     0    0.00000    0   21    6.37288    0.00000   100%     -    0s
         0     0    0.00000    0   20    6.37288    0.00000   100%     -    0s
         0     0    0.00000    0   18    6.37288    0.00000   100%     -    0s
         0     0    0.00000    0   26    6.37288    0.00000   100%     -    0s
         0     0    0.00000    0   24    6.37288    0.00000   100%     -    1s
         0     0    0.00000    0   24    6.37288    0.00000   100%     -    1s
         0     0    0.00000    0   22    6.37288    0.00000   100%     -    1s
         0     0    0.00000    0   26    6.37288    0.00000   100%     -    1s
         0     0    0.00000    0   24    6.37288    0.00000   100%     -    1s
         0     0    0.00000    0   24    6.37288    0.00000   100%     -    1s
         0     0    0.00000    0   22    6.37288    0.00000   100%     -    1s
         0     0    0.00000    0   24    6.37288    0.00000   100%     -    1s
         0     0    0.00000    0   12    6.37288    0.00000   100%     -    1s
         0     0    0.00000    0   26    6.37288    0.00000   100%     -    1s
         0     0    0.00000    0   22    6.37288    0.00000   100%     -    1s
         0     0    0.00000    0   24    6.37288    0.00000   100%     -    1s
         0     0    0.00000    0   24    6.37288    0.00000   100%     -    1s
         0     0    0.00000    0   26    6.37288    0.00000   100%     -    1s
         0     0    0.00000    0   19    6.37288    0.00000   100%     -    1s
         0     0    0.00000    0   19    6.37288    0.00000   100%     -    1s
         0     0    0.00000    0   18    6.37288    0.00000   100%     -    1s
         0     0    0.00000    0   28    6.37288    0.00000   100%     -    1s
         0     0    0.00000    0   22    6.37288    0.00000   100%     -    1s
         0     0    0.00000    0   24    6.37288    0.00000   100%     -    1s
         0     0    0.00000    0   20    6.37288    0.00000   100%     -    1s
         0     0    0.00000    0   20    6.37288    0.00000   100%     -    1s
         0     0    0.00000    0   20    6.37288    0.00000   100%     -    1s
         0     0    0.00000    0   28    6.37288    0.00000   100%     -    1s
         0     0    0.00000    0   22    6.37288    0.00000   100%     -    1s
         0     0    0.00000    0   23    6.37288    0.00000   100%     -    1s
         0     0    0.00000    0   23    6.37288    0.00000   100%     -    1s
         0     0    0.00000    0   29    6.37288    0.00000   100%     -    1s
         0     0    0.00000    0   22    6.37288    0.00000   100%     -    1s
         0     0    0.00000    0   24    6.37288    0.00000   100%     -    1s
         0     0    0.00000    0   24    6.37288    0.00000   100%     -    1s
         0     0    0.00000    0   24    6.37288    0.00000   100%     -    1s
         0     0    0.00000    0   20    6.37288    0.00000   100%     -    1s
         0     0    0.00000    0   24    6.37288    0.00000   100%     -    1s
         0     0    0.00000    0   20    6.37288    0.00000   100%     -    1s
         0     0    0.00000    0   24    6.37288    0.00000   100%     -    1s
         0     0    0.00000    0   24    6.37288    0.00000   100%     -    1s
         0     0    0.00000    0   24    6.37288    0.00000   100%     -    1s
         0     0    0.00000    0   22    6.37288    0.00000   100%     -    1s
         0     0    0.00000    0   20    6.37288    0.00000   100%     -    1s
         0     0    0.00000    0   18    6.37288    0.00000   100%     -    1s
         0     0    0.00000    0   22    6.37288    0.00000   100%     -    1s
         0     0    0.00000    0   11    6.37288    0.00000   100%     -    1s
         0     0    0.00000    0   19    6.37288    0.00000   100%     -    1s
         0     0    0.00000    0   19    6.37288    0.00000   100%     -    1s
         0     0    0.00000    0   22    6.37288    0.00000   100%     -    1s
         0     0    0.00000    0   22    6.37288    0.00000   100%     -    1s
         0     0    0.00000    0   22    6.37288    0.00000   100%     -    1s
         0     0    0.00000    0   22    6.37288    0.00000   100%     -    1s
         0     0    0.00000    0   20    6.37288    0.00000   100%     -    1s
         0     0    0.00000    0   20    6.37288    0.00000   100%     -    1s
         0     0    0.00000    0   18    6.37288    0.00000   100%     -    1s
         0     0    0.00000    0   18    6.37288    0.00000   100%     -    1s
         0     0    0.00000    0   20    6.37288    0.00000   100%     -    1s
         0     0    0.00000    0   16    6.37288    0.00000   100%     -    1s
         0     2    0.00000    0   22    6.37288    0.00000   100%     -    1s
    H  244   147                       6.3728730    0.00000   100%  72.4    1s
    H  387   235                       6.3728711    0.00000   100%   117    4s
    H  396   227                       6.2877229    0.00000   100%   118    4s
    H  397   216                       6.2877227    0.00000   100%   118    4s
    H  397   206                       6.2243832    0.00000   100%   118    4s
    H  403   196                       6.1896260    0.00000   100%   117    4s
    H  406   184                       6.1896258    0.00000   100%   117    4s
    H  411   172                       5.6633054    0.00000   100%   120    4s
    H  414   159                       4.8306223    0.00000   100%   121    4s
    H  430   157                       4.8306216    0.00000   100%   121    4s
    H  431   149                       4.7419420    0.00000   100%   121    4s
    H  472   148                       4.7419420    0.43208  90.9%   123    4s
       484   158    2.50280   24   20    4.74194    0.43208  90.9%   124    5s
    H  546   164                       4.7419419    0.44623  90.6%   120    5s
    H  796   204                       4.6229271    1.39762  69.8%   115    5s
    H  845   210                       4.6229253    1.78476  61.4%   114    6s
    H  856   209                       4.6229252    1.84230  60.1%   114    6s
    
    Cutting planes:
      Gomory: 2
      MIR: 1
      Flow cover: 13
    
    Explored 2466 nodes (254407 simplex iterations) in 8.88 seconds (8.72 work units)
    Thread count was 1 (of 96 available processors)
    
    Solution count 6: 4.62293 4.74194 4.83062 ... 6.37287
    
    Optimal solution found (tolerance 1.00e-06)
    Best objective 4.622925221082e+00, best bound 4.622925221082e+00, gap 0.0000%
    
    User-callback calls 2584, time in user-callback 0.00 sec

... Solving fixed model...

    Gurobi Optimizer version 13.0.0 build v13.0.0rc1 (linux64 - "Oracle Linux Server 9.7")
    
    CPU model: AMD EPYC 7643 48-Core Processor, instruction set [SSE2|AVX|AVX2]
    Thread count: 48 physical cores, 96 logical processors, using up to 1 threads
    
    Non-default parameters:
    TimeLimit  300
    MIPGap  1e-06
    LogToConsole  0
    NonConvex  2
    Threads  1
    
    Optimize a model with 702 rows, 359 columns and 1572 nonzeros (Min)
    Model fingerprint: 0x4d28f3fa
    Model has 14 linear objective coefficients
    Model has 42 quadratic constraints
    Coefficient statistics:
      Matrix range     [1e+00, 8e+01]
      QMatrix range    [4e-02, 3e+00]
      Objective range  [1e+00, 1e+00]
      Bounds range     [1e+00, 8e+01]
      RHS range        [1e+00, 1e+00]
    Presolve removed 700 rows and 336 columns
    Presolve time: 0.00s
    Presolved: 71 rows, 84 columns, 176 nonzeros
    Presolved model has 14 second-order cone constraints
    Ordering time: 0.00s
    
    Barrier statistics:
     AA' NZ     : 6.750e+02
     Factor NZ  : 9.560e+02
     Factor Ops : 1.704e+04 (less than 1 second per iteration)
     Threads    : 1
    
                      Objective                Residual
    Iter       Primal          Dual         Primal    Dual     Compl     Time
       0   5.97728551e+02 -3.73008503e+02  9.24e+00 3.60e+00  1.12e+01     0s
       1   4.63362568e+01 -6.39206253e+01  1.02e-05 3.96e-06  9.50e-01     0s
       2   5.98546196e+00 -4.32662113e+00  3.06e-07 3.56e-07  8.89e-02     0s
       3   5.21645864e+00  3.79092582e+00  3.38e-13 1.88e-08  1.23e-02     0s
       4   4.66886862e+00  4.58894809e+00  3.12e-14 1.96e-10  6.89e-04     0s
       5   4.62550180e+00  4.62121683e+00  6.66e-13 2.03e-12  3.69e-05     0s
       6   4.62363586e+00  4.62272520e+00  4.17e-11 1.95e-13  7.85e-06     0s
       7   4.62307519e+00  4.62288017e+00  2.94e-10 7.55e-14  1.68e-06     0s
       8   4.62293726e+00  4.62291709e+00  7.90e-10 2.22e-13  1.74e-07     0s
       9   4.62292711e+00  4.62292389e+00  3.30e-09 2.50e-13  2.77e-08     0s
    
    Barrier solved model in 9 iterations and 0.00 seconds (0.00 work units)
    Optimal objective 4.62292711e+00
    
    
    User-callback calls 0, time in user-callback 0.00 sec
    Warning: to get QCP duals, please set parameter QCPDual to 1

--- Reading solution for model GAMS_MODEL
***
*** Solver did not provide marginals for model GAMS_MODEL
***
--- Executing after solve: elapsed 0:00:08.932
--- model.gms(2472) 3 Mb
--- model.gms(3627) 5 Mb
--- Putfile results /local/scratch/a/sgusev/repos/k_means/data/gams_gurobi_gdp.hull_exact/no_mode/2026-02-14_19-08-26/original/results.dat
--- Putfile statresults /local/scratch/a/sgusev/repos/k_means/data/gams_gurobi_gdp.hull_exact/no_mode/2026-02-14_19-08-26/original/resultsstat.dat
*** Status: Normal completion
--- Job model.gms Stop 02/14/26 19:08:36 elapsed 0:00:08.934
Original problem solved. Time taken: 9.496374368667603 seconds
Original objective value: 4.622927109710024
